159 300 232 248 200 210 242 219 232 215 200 246 233 210 219 239 241 202 231 202 217 221 236 250 235 219 218 237 246 218 244 210 230 225 208 230 209 224 249 242 240 249 237 247 233 231 210 223 233 241 225 250 236 210 223 245 230 242 231 225 234 249 236 213 249 218 244 207 242 216 249 205 240 210 227 222 241 237 246 248 201 220 221 237 205 245 231 235 236 237 234 219 209 244 232 207 211 250 240 228 241 238 207 230 248 234 226 212 245 221 209 220 216 231 231 221 225 237 230 235 223 213 228 206 207 234 239 243 234 228 220 249 215 202 202 238 210 228 250 205 250 234 225 240 239 231 210 213 217 240 222 214 202 250 220 234 233 208 227 241 236 